Route #1: 44 42 35 41 23 31
Route #2: 58 16 15 22 56
Route #3: 45 12 14 18 40
Route #4: 48 51 57 3
Route #5: 54 17 2 37 34 49 32 4 10 38
Route #6: 43 6 27 8 33 20 7 30
Route #7: 28 53 47 25 13
Route #8: 36 19 24 50 9 55 59
Route #9: 11 29 5 39 26 46
Route #10: 52 1 21

Cost: 3829.4207418798305
